3 15
187 137 160 
0 86 48 63 66 39 85 73 60 40 74 39 6 1
1 87 48 95 83 12 25 56 78 71 95 9 9 2
2 72 90 81 61 81 31 48 71 3 19 100 64 3
3 84 99 61 54 45 100 48 91 65 50 79 16 1
4 90 56 58 7 27 57 13 48 61 77 65 91 1
5 65 82 74 36 82 83 49 39 97 61 92 14 1
6 98 81 54 8 3 34 9 45 67 58 3 11 3
7 80 20 20 58 61 97 12 80 57 79 23 59 1
8 15 81 67 48 20 14 60 23 37 16 41 59 2
9 75 46 35 1 4 47 13 13 53 1 27 93 3
10 99 28 92 74 76 13 94 23 28 99 12 54 3
11 47 99 20 10 92 20 43 10 76 22 91 87 1
12 83 84 44 35 4 77 6 62 8 81 28 98 3
13 42 36 91 75 31 21 20 35 83 27 19 62 2
14 55 37 20 71 92 98 2 60 67 36 77 86 3
